100 92090

 779 416
771 632
227 386
976 340
996 635
76 592
937 294
290 150
690 369
339 416
968 629
102 915
498 37
429 244
327 194
646 503
132 430
717 730
981 243
805 595
861 884
360 911
325 959
518 774
46 906
946 235
144 198
904 7
84 707
823 938
152 187
39 637
720 747
281 928
715 647
556 971
109 345
933 350
453 544
735 384
502 2
605 732
303 752
201 747
543 346
441 523
391 360
673 17
691 563
46 124
339 81
412 756
97 10
236 960
52 516
997 984
737 58
88 584
21 350
720 844
440 362
787 261
924 858
600 375
188 17
783 391
956 655
581 255
682 432
338 57
382 589
735 757
928 414
629 421
790 89
172 202
212 155
533 482
177 530
635 949
292 74
792 600
809 527
464 517
181 874
647 206
993 41
623 673
36 346
18 18
321 252
196 310
814 617
845 173
259 414
326 483
237 460
909 974
503 46
657 951
